p cnf 767 2511
2 -3 51 0
-2 -3 -51 0
2 3 -51 0
-2 3 51 0
-4 5 52 0
4 5 -52 0
-4 -5 -52 0
4 -5 52 0
-6 7 53 0
6 7 -53 0
-6 -7 -53 0
6 -7 53 0
8 12 54 0
-8 12 -54 0
8 -12 -54 0
-8 -12 54 0
-14 18 55 0
14 18 -55 0
-14 -18 -55 0
14 -18 55 0
21 23 56 0
-21 23 -56 0
21 -23 -56 0
-21 -23 56 0
25 28 57 0
-25 28 -57 0
25 -28 -57 0
-25 -28 57 0
30 -33 58 0
-30 -33 -58 0
30 33 -58 0
-30 33 58 0
34 -35 59 0
-34 -35 -59 0
34 35 -59 0
-34 35 59 0
-36 38 60 0
36 38 -60 0
-36 -38 -60 0
36 -38 60 0
40 41 61 0
-40 41 -61 0
40 -41 -61 0
-40 -41 61 0
-42 44 62 0
42 44 -62 0
-42 -44 -62 0
42 -44 62 0
-47 50 63 0
47 50 -63 0
-47 -50 -63 0
47 -50 63 0
51 -52 64 0
-51 -52 -64 0
51 52 -64 0
-51 52 64 0
53 -54 65 0
-53 -54 -65 0
53 54 -65 0
-53 54 65 0
55 -56 66 0
-55 -56 -66 0
55 56 -66 0
-55 56 66 0
57 -58 67 0
-57 -58 -67 0
57 58 -67 0
-57 58 67 0
59 -60 68 0
-59 -60 -68 0
59 60 -68 0
-59 60 68 0
61 -62 69 0
-61 -62 -69 0
61 62 -69 0
-61 62 69 0
63 -64 70 0
-63 -64 -70 0
63 64 -70 0
-63 64 70 0
65 -66 71 0
-65 -66 -71 0
65 66 -71 0
-65 66 71 0
67 -68 72 0
-67 -68 -72 0
67 68 -72 0
-67 68 72 0
69 -70 73 0
-69 -70 -73 0
69 70 -73 0
-69 70 73 0
71 -72 74 0
-71 -72 -74 0
71 72 -74 0
-71 72 74 0
73 74 0
-73 -74 0
2 5 75 0
-2 5 -75 0
2 -5 -75 0
-2 -5 75 0
7 -10 76 0
-7 -10 -76 0
7 10 -76 0
-7 10 76 0
13 -14 77 0
-13 -14 -77 0
13 14 -77 0
-13 14 77 0
15 -16 78 0
-15 -16 -78 0
15 16 -78 0
-15 16 78 0
-17 -18 79 0
17 -18 -79 0
-17 18 -79 0
17 18 79 0
22 24 80 0
-22 24 -80 0
22 -24 -80 0
-22 -24 80 0
-26 30 81 0
26 30 -81 0
-26 -30 -81 0
26 -30 81 0
37 -39 82 0
-37 -39 -82 0
37 39 -82 0
-37 39 82 0
40 -42 83 0
-40 -42 -83 0
40 42 -83 0
-40 42 83 0
-43 -45 84 0
43 -45 -84 0
-43 45 -84 0
43 45 84 0
74 -75 85 0
-74 -75 -85 0
74 75 -85 0
-74 75 85 0
76 -77 86 0
-76 -77 -86 0
76 77 -86 0
-76 77 86 0
78 -79 87 0
-78 -79 -87 0
78 79 -87 0
-78 79 87 0
80 -81 88 0
-80 -81 -88 0
80 81 -88 0
-80 81 88 0
82 -83 89 0
-82 -83 -89 0
82 83 -89 0
-82 83 89 0
84 -85 90 0
-84 -85 -90 0
84 85 -90 0
-84 85 90 0
86 -87 91 0
-86 -87 -91 0
86 87 -91 0
-86 87 91 0
88 -89 92 0
-88 -89 -92 0
88 89 -92 0
-88 89 92 0
-90 -91 92 0
90 -91 -92 0
-90 91 -92 0
90 91 92 0
3 -6 93 0
-3 -6 -93 0
3 6 -93 0
-3 6 93 0
-7 8 94 0
7 8 -94 0
-7 -8 -94 0
7 -8 94 0
9 -11 95 0
-9 -11 -95 0
9 11 -95 0
-9 11 95 0
-12 13 96 0
12 13 -96 0
-12 -13 -96 0
12 -13 96 0
-14 -15 97 0
14 -15 -97 0
-14 15 -97 0
14 15 97 0
18 19 98 0
-18 19 -98 0
18 -19 -98 0
-18 -19 98 0
-20 -21 99 0
20 -21 -99 0
-20 21 -99 0
20 21 99 0
-23 -29 100 0
23 -29 -100 0
-23 29 -100 0
23 29 100 0
31 -32 101 0
-31 -32 -101 0
31 32 -101 0
-31 32 101 0
33 34 102 0
-33 34 -102 0
33 -34 -102 0
-33 -34 102 0
-35 37 103 0
35 37 -103 0
-35 -37 -103 0
35 -37 103 0
42 43 104 0
-42 43 -104 0
42 -43 -104 0
-42 -43 104 0
-46 -47 105 0
46 -47 -105 0
-46 47 -105 0
46 47 105 0
49 -50 106 0
-49 -50 -106 0
49 50 -106 0
-49 50 106 0
93 -94 107 0
-93 -94 -107 0
93 94 -107 0
-93 94 107 0
95 -96 108 0
-95 -96 -108 0
95 96 -108 0
-95 96 108 0
97 -98 109 0
-97 -98 -109 0
97 98 -109 0
-97 98 109 0
99 -100 110 0
-99 -100 -110 0
99 100 -110 0
-99 100 110 0
101 -102 111 0
-101 -102 -111 0
101 102 -111 0
-101 102 111 0
103 -104 112 0
-103 -104 -112 0
103 104 -112 0
-103 104 112 0
105 -106 113 0
-105 -106 -113 0
105 106 -113 0
-105 106 113 0
107 -108 114 0
-107 -108 -114 0
107 108 -114 0
-107 108 114 0
109 -110 115 0
-109 -110 -115 0
109 110 -115 0
-109 110 115 0
111 -112 116 0
-111 -112 -116 0
111 112 -116 0
-111 112 116 0
113 -114 117 0
-113 -114 -117 0
113 114 -117 0
-113 114 117 0
115 -116 118 0
-115 -116 -118 0
115 116 -118 0
-115 116 118 0
117 118 0
-117 -118 0
-1 2 119 0
1 2 -119 0
-1 -2 -119 0
1 -2 119 0
-6 7 120 0
6 7 -120 0
-6 -7 -120 0
6 -7 120 0
9 -13 121 0
-9 -13 -121 0
9 13 -121 0
-9 13 121 0
-14 15 122 0
14 15 -122 0
-14 -15 -122 0
14 -15 122 0
-16 17 123 0
16 17 -123 0
-16 -17 -123 0
16 -17 123 0
26 -28 124 0
-26 -28 -124 0
26 28 -124 0
-26 28 124 0
32 -35 125 0
-32 -35 -125 0
32 35 -125 0
-32 35 125 0
-36 37 126 0
36 37 -126 0
-36 -37 -126 0
36 -37 126 0
39 -41 127 0
-39 -41 -127 0
39 41 -127 0
-39 41 127 0
42 -43 128 0
-42 -43 -128 0
42 43 -128 0
-42 43 128 0
118 -119 129 0
-118 -119 -129 0
118 119 -129 0
-118 119 129 0
120 -121 130 0
-120 -121 -130 0
120 121 -130 0
-120 121 130 0
122 -123 131 0
-122 -123 -131 0
122 123 -131 0
-122 123 131 0
124 -125 132 0
-124 -125 -132 0
124 125 -132 0
-124 125 132 0
126 -127 133 0
-126 -127 -133 0
126 127 -133 0
-126 127 133 0
128 -129 134 0
-128 -129 -134 0
128 129 -134 0
-128 129 134 0
130 -131 135 0
-130 -131 -135 0
130 131 -135 0
-130 131 135 0
132 -133 136 0
-132 -133 -136 0
132 133 -136 0
-132 133 136 0
-134 -135 136 0
134 -135 -136 0
-134 135 -136 0
134 135 136 0
-10 12 137 0
10 12 -137 0
-10 -12 -137 0
10 -12 137 0
14 -15 138 0
-14 -15 -138 0
14 15 -138 0
-14 15 138 0
-16 -17 139 0
16 -17 -139 0
-16 17 -139 0
16 17 139 0
19 20 140 0
-19 20 -140 0
19 -20 -140 0
-19 -20 140 0
24 26 141 0
-24 26 -141 0
24 -26 -141 0
-24 -26 141 0
30 34 142 0
-30 34 -142 0
30 -34 -142 0
-30 -34 142 0
-38 -40 143 0
38 -40 -143 0
-38 40 -143 0
38 40 143 0
41 42 144 0
-41 42 -144 0
41 -42 -144 0
-41 -42 144 0
-43 -47 145 0
43 -47 -145 0
-43 47 -145 0
43 47 145 0
137 -138 146 0
-137 -138 -146 0
137 138 -146 0
-137 138 146 0
139 -140 147 0
-139 -140 -147 0
139 140 -147 0
-139 140 147 0
141 -142 148 0
-141 -142 -148 0
141 142 -148 0
-141 142 148 0
143 -144 149 0
-143 -144 -149 0
143 144 -149 0
-143 144 149 0
145 -146 150 0
-145 -146 -150 0
145 146 -150 0
-145 146 150 0
147 -148 151 0
-147 -148 -151 0
147 148 -151 0
-147 148 151 0
-149 -150 151 0
149 -150 -151 0
-149 150 -151 0
149 150 151 0
1 -2 152 0
-1 -2 -152 0
1 2 -152 0
-1 2 152 0
6 -7 153 0
-6 -7 -153 0
6 7 -153 0
-6 7 153 0
11 12 154 0
-11 12 -154 0
11 -12 -154 0
-11 -12 154 0
13 -14 155 0
-13 -14 -155 0
13 14 -155 0
-13 14 155 0
-16 -17 156 0
16 -17 -156 0
-16 17 -156 0
16 17 156 0
-18 20 157 0
18 20 -157 0
-18 -20 -157 0
18 -20 157 0
-21 22 158 0
21 22 -158 0
-21 -22 -158 0
21 -22 158 0
-23 -24 159 0
23 -24 -159 0
-23 24 -159 0
23 24 159 0
25 26 160 0
-25 26 -160 0
25 -26 -160 0
-25 -26 160 0
27 -28 161 0
-27 -28 -161 0
27 28 -161 0
-27 28 161 0
-29 32 162 0
29 32 -162 0
-29 -32 -162 0
29 -32 162 0
35 37 163 0
-35 37 -163 0
35 -37 -163 0
-35 -37 163 0
-38 40 164 0
38 40 -164 0
-38 -40 -164 0
38 -40 164 0
41 -44 165 0
-41 -44 -165 0
41 44 -165 0
-41 44 165 0
45 46 166 0
-45 46 -166 0
45 -46 -166 0
-45 -46 166 0
48 50 167 0
-48 50 -167 0
48 -50 -167 0
-48 -50 167 0
152 -153 168 0
-152 -153 -168 0
152 153 -168 0
-152 153 168 0
154 -155 169 0
-154 -155 -169 0
154 155 -169 0
-154 155 169 0
156 -157 170 0
-156 -157 -170 0
156 157 -170 0
-156 157 170 0
158 -159 171 0
-158 -159 -171 0
158 159 -171 0
-158 159 171 0
160 -161 172 0
-160 -161 -172 0
160 161 -172 0
-160 161 172 0
162 -163 173 0
-162 -163 -173 0
162 163 -173 0
-162 163 173 0
164 -165 174 0
-164 -165 -174 0
164 165 -174 0
-164 165 174 0
166 -167 175 0
-166 -167 -175 0
166 167 -175 0
-166 167 175 0
168 -169 176 0
-168 -169 -176 0
168 169 -176 0
-168 169 176 0
170 -171 177 0
-170 -171 -177 0
170 171 -177 0
-170 171 177 0
172 -173 178 0
-172 -173 -178 0
172 173 -178 0
-172 173 178 0
174 -175 179 0
-174 -175 -179 0
174 175 -179 0
-174 175 179 0
176 -177 180 0
-176 -177 -180 0
176 177 -180 0
-176 177 180 0
178 -179 181 0
-178 -179 -181 0
178 179 -181 0
-178 179 181 0
180 181 0
-180 -181 0
2 5 182 0
-2 5 -182 0
2 -5 -182 0
-2 -5 182 0
-6 -7 183 0
6 -7 -183 0
-6 7 -183 0
6 7 183 0
9 15 184 0
-9 15 -184 0
9 -15 -184 0
-9 -15 184 0
17 -19 185 0
-17 -19 -185 0
17 19 -185 0
-17 19 185 0
-20 -21 186 0
20 -21 -186 0
-20 21 -186 0
20 21 186 0
-22 -23 187 0
22 -23 -187 0
-22 23 -187 0
22 23 187 0
-24 25 188 0
24 25 -188 0
-24 -25 -188 0
24 -25 188 0
27 -30 189 0
-27 -30 -189 0
27 30 -189 0
-27 30 189 0
33 -35 190 0
-33 -35 -190 0
33 35 -190 0
-33 35 190 0
36 37 191 0
-36 37 -191 0
36 -37 -191 0
-36 -37 191 0
-39 41 192 0
39 41 -192 0
-39 -41 -192 0
39 -41 192 0
44 46 193 0
-44 46 -193 0
44 -46 -193 0
-44 -46 193 0
47 48 194 0
-47 48 -194 0
47 -48 -194 0
-47 -48 194 0
181 -182 195 0
-181 -182 -195 0
181 182 -195 0
-181 182 195 0
183 -184 196 0
-183 -184 -196 0
183 184 -196 0
-183 184 196 0
185 -186 197 0
-185 -186 -197 0
185 186 -197 0
-185 186 197 0
187 -188 198 0
-187 -188 -198 0
187 188 -198 0
-187 188 198 0
189 -190 199 0
-189 -190 -199 0
189 190 -199 0
-189 190 199 0
191 -192 200 0
-191 -192 -200 0
191 192 -200 0
-191 192 200 0
193 -194 201 0
-193 -194 -201 0
193 194 -201 0
-193 194 201 0
195 -196 202 0
-195 -196 -202 0
195 196 -202 0
-195 196 202 0
197 -198 203 0
-197 -198 -203 0
197 198 -203 0
-197 198 203 0
199 -200 204 0
-199 -200 -204 0
199 200 -204 0
-199 200 204 0
201 -202 205 0
-201 -202 -205 0
201 202 -205 0
-201 202 205 0
203 -204 206 0
-203 -204 -206 0
203 204 -206 0
-203 204 206 0
205 206 0
-205 -206 0
-1 2 207 0
1 2 -207 0
-1 -2 -207 0
1 -2 207 0
3 4 208 0
-3 4 -208 0
3 -4 -208 0
-3 -4 208 0
-5 6 209 0
5 6 -209 0
-5 -6 -209 0
5 -6 209 0
-7 -8 210 0
7 -8 -210 0
-7 8 -210 0
7 8 210 0
-9 -10 211 0
9 -10 -211 0
-9 10 -211 0
9 10 211 0
-12 -15 212 0
12 -15 -212 0
-12 15 -212 0
12 15 212 0
-17 -19 213 0
17 -19 -213 0
-17 19 -213 0
17 19 213 0
20 -21 214 0
-20 -21 -214 0
20 21 -214 0
-20 21 214 0
23 -31 215 0
-23 -31 -215 0
23 31 -215 0
-23 31 215 0
-35 -41 216 0
35 -41 -216 0
-35 41 -216 0
35 41 216 0
42 -44 217 0
-42 -44 -217 0
42 44 -217 0
-42 44 217 0
45 47 218 0
-45 47 -218 0
45 -47 -218 0
-45 -47 218 0
206 -207 219 0
-206 -207 -219 0
206 207 -219 0
-206 207 219 0
208 -209 220 0
-208 -209 -220 0
208 209 -220 0
-208 209 220 0
210 -211 221 0
-210 -211 -221 0
210 211 -221 0
-210 211 221 0
212 -213 222 0
-212 -213 -222 0
212 213 -222 0
-212 213 222 0
214 -215 223 0
-214 -215 -223 0
214 215 -223 0
-214 215 223 0
216 -217 224 0
-216 -217 -224 0
216 217 -224 0
-216 217 224 0
218 -219 225 0
-218 -219 -225 0
218 219 -225 0
-218 219 225 0
220 -221 226 0
-220 -221 -226 0
220 221 -226 0
-220 221 226 0
222 -223 227 0
-222 -223 -227 0
222 223 -227 0
-222 223 227 0
224 -225 228 0
-224 -225 -228 0
224 225 -228 0
-224 225 228 0
226 -227 229 0
-226 -227 -229 0
226 227 -229 0
-226 227 229 0
228 229 0
-228 -229 0
4 -5 230 0
-4 -5 -230 0
4 5 -230 0
-4 5 230 0
8 -9 231 0
-8 -9 -231 0
8 9 -231 0
-8 9 231 0
13 -16 232 0
-13 -16 -232 0
13 16 -232 0
-13 16 232 0
19 23 233 0
-19 23 -233 0
19 -23 -233 0
-19 -23 233 0
-25 26 234 0
25 26 -234 0
-25 -26 -234 0
25 -26 234 0
-28 30 235 0
28 30 -235 0
-28 -30 -235 0
28 -30 235 0
-31 34 236 0
31 34 -236 0
-31 -34 -236 0
31 -34 236 0
36 -42 237 0
-36 -42 -237 0
36 42 -237 0
-36 42 237 0
-43 -45 238 0
43 -45 -238 0
-43 45 -238 0
43 45 238 0
-47 -48 239 0
47 -48 -239 0
-47 48 -239 0
47 48 239 0
229 -230 240 0
-229 -230 -240 0
229 230 -240 0
-229 230 240 0
231 -232 241 0
-231 -232 -241 0
231 232 -241 0
-231 232 241 0
233 -234 242 0
-233 -234 -242 0
233 234 -242 0
-233 234 242 0
235 -236 243 0
-235 -236 -243 0
235 236 -243 0
-235 236 243 0
237 -238 244 0
-237 -238 -244 0
237 238 -244 0
-237 238 244 0
239 -240 245 0
-239 -240 -245 0
239 240 -245 0
-239 240 245 0
241 -242 246 0
-241 -242 -246 0
241 242 -246 0
-241 242 246 0
243 -244 247 0
-243 -244 -247 0
243 244 -247 0
-243 244 247 0
-245 -246 247 0
245 -246 -247 0
-245 246 -247 0
245 246 247 0
-2 3 248 0
2 3 -248 0
-2 -3 -248 0
2 -3 248 0
-5 -8 249 0
5 -8 -249 0
-5 8 -249 0
5 8 249 0
-9 -10 250 0
9 -10 -250 0
-9 10 -250 0
9 10 250 0
-11 -12 251 0
11 -12 -251 0
-11 12 -251 0
11 12 251 0
-14 -15 252 0
14 -15 -252 0
-14 15 -252 0
14 15 252 0
-18 19 253 0
18 19 -253 0
-18 -19 -253 0
18 -19 253 0
21 33 254 0
-21 33 -254 0
21 -33 -254 0
-21 -33 254 0
34 35 255 0
-34 35 -255 0
34 -35 -255 0
-34 -35 255 0
-37 38 256 0
37 38 -256 0
-37 -38 -256 0
37 -38 256 0
-39 46 257 0
39 46 -257 0
-39 -46 -257 0
39 -46 257 0
-47 49 258 0
47 49 -258 0
-47 -49 -258 0
47 -49 258 0
247 -248 259 0
-247 -248 -259 0
247 248 -259 0
-247 248 259 0
249 -250 260 0
-249 -250 -260 0
249 250 -260 0
-249 250 260 0
251 -252 261 0
-251 -252 -261 0
251 252 -261 0
-251 252 261 0
253 -254 262 0
-253 -254 -262 0
253 254 -262 0
-253 254 262 0
255 -256 263 0
-255 -256 -263 0
255 256 -263 0
-255 256 263 0
257 -258 264 0
-257 -258 -264 0
257 258 -264 0
-257 258 264 0
259 -260 265 0
-259 -260 -265 0
259 260 -265 0
-259 260 265 0
261 -262 266 0
-261 -262 -266 0
261 262 -266 0
-261 262 266 0
263 -264 267 0
-263 -264 -267 0
263 264 -267 0
-263 264 267 0
-265 -266 267 0
265 -266 -267 0
-265 266 -267 0
265 266 267 0
-1 3 268 0
1 3 -268 0
-1 -3 -268 0
1 -3 268 0
5 6 269 0
-5 6 -269 0
5 -6 -269 0
-5 -6 269 0
-13 -16 270 0
13 -16 -270 0
-13 16 -270 0
13 16 270 0
18 -19 271 0
-18 -19 -271 0
18 19 -271 0
-18 19 271 0
21 23 272 0
-21 23 -272 0
21 -23 -272 0
-21 -23 272 0
24 26 273 0
-24 26 -273 0
24 -26 -273 0
-24 -26 273 0
28 -29 274 0
-28 -29 -274 0
28 29 -274 0
-28 29 274 0
30 -32 275 0
-30 -32 -275 0
30 32 -275 0
-30 32 275 0
-33 -34 276 0
33 -34 -276 0
-33 34 -276 0
33 34 276 0
35 38 277 0
-35 38 -277 0
35 -38 -277 0
-35 -38 277 0
-40 42 278 0
40 42 -278 0
-40 -42 -278 0
40 -42 278 0
-43 47 279 0
43 47 -279 0
-43 -47 -279 0
43 -47 279 0
267 -268 280 0
-267 -268 -280 0
267 268 -280 0
-267 268 280 0
269 -270 281 0
-269 -270 -281 0
269 270 -281 0
-269 270 281 0
271 -272 282 0
-271 -272 -282 0
271 272 -282 0
-271 272 282 0
273 -274 283 0
-273 -274 -283 0
273 274 -283 0
-273 274 283 0
275 -276 284 0
-275 -276 -284 0
275 276 -284 0
-275 276 284 0
277 -278 285 0
-277 -278 -285 0
277 278 -285 0
-277 278 285 0
279 -280 286 0
-279 -280 -286 0
279 280 -286 0
-279 280 286 0
281 -282 287 0
-281 -282 -287 0
281 282 -287 0
-281 282 287 0
283 -284 288 0
-283 -284 -288 0
283 284 -288 0
-283 284 288 0
285 -286 289 0
-285 -286 -289 0
285 286 -289 0
-285 286 289 0
287 -288 290 0
-287 -288 -290 0
287 288 -290 0
-287 288 290 0
289 290 0
-289 -290 0
1 -2 291 0
-1 -2 -291 0
1 2 -291 0
-1 2 291 0
3 -4 292 0
-3 -4 -292 0
3 4 -292 0
-3 4 292 0
-6 -8 293 0
6 -8 -293 0
-6 8 -293 0
6 8 293 0
-9 10 294 0
9 10 -294 0
-9 -10 -294 0
9 -10 294 0
11 12 295 0
-11 12 -295 0
11 -12 -295 0
-11 -12 295 0
-13 -15 296 0
13 -15 -296 0
-13 15 -296 0
13 15 296 0
17 -19 297 0
-17 -19 -297 0
17 19 -297 0
-17 19 297 0
-20 24 298 0
20 24 -298 0
-20 -24 -298 0
20 -24 298 0
-25 29 299 0
25 29 -299 0
-25 -29 -299 0
25 -29 299 0
-31 38 300 0
31 38 -300 0
-31 -38 -300 0
31 -38 300 0
-39 42 301 0
39 42 -301 0
-39 -42 -301 0
39 -42 301 0
-43 44 302 0
43 44 -302 0
-43 -44 -302 0
43 -44 302 0
-46 48 303 0
46 48 -303 0
-46 -48 -303 0
46 -48 303 0
290 -291 304 0
-290 -291 -304 0
290 291 -304 0
-290 291 304 0
292 -293 305 0
-292 -293 -305 0
292 293 -305 0
-292 293 305 0
294 -295 306 0
-294 -295 -306 0
294 295 -306 0
-294 295 306 0
296 -297 307 0
-296 -297 -307 0
296 297 -307 0
-296 297 307 0
298 -299 308 0
-298 -299 -308 0
298 299 -308 0
-298 299 308 0
300 -301 309 0
-300 -301 -309 0
300 301 -309 0
-300 301 309 0
302 -303 310 0
-302 -303 -310 0
302 303 -310 0
-302 303 310 0
304 -305 311 0
-304 -305 -311 0
304 305 -311 0
-304 305 311 0
306 -307 312 0
-306 -307 -312 0
306 307 -312 0
-306 307 312 0
308 -309 313 0
-308 -309 -313 0
308 309 -313 0
-308 309 313 0
310 -311 314 0
-310 -311 -314 0
310 311 -314 0
-310 311 314 0
312 -313 315 0
-312 -313 -315 0
312 313 -315 0
-312 313 315 0
314 315 0
-314 -315 0
3 7 316 0
-3 7 -316 0
3 -7 -316 0
-3 -7 316 0
8 -10 317 0
-8 -10 -317 0
8 10 -317 0
-8 10 317 0
-11 -13 318 0
11 -13 -318 0
-11 13 -318 0
11 13 318 0
-15 18 319 0
15 18 -319 0
-15 -18 -319 0
15 -18 319 0
-20 -21 320 0
20 -21 -320 0
-20 21 -320 0
20 21 320 0
22 24 321 0
-22 24 -321 0
22 -24 -321 0
-22 -24 321 0
26 27 322 0
-26 27 -322 0
26 -27 -322 0
-26 -27 322 0
-29 30 323 0
29 30 -323 0
-29 -30 -323 0
29 -30 323 0
-31 -32 324 0
31 -32 -324 0
-31 32 -324 0
31 32 324 0
-35 -36 325 0
35 -36 -325 0
-35 36 -325 0
35 36 325 0
37 -38 326 0
-37 -38 -326 0
37 38 -326 0
-37 38 326 0
39 42 327 0
-39 42 -327 0
39 -42 -327 0
-39 -42 327 0
-43 -44 328 0
43 -44 -328 0
-43 44 -328 0
43 44 328 0
45 46 329 0
-45 46 -329 0
45 -46 -329 0
-45 -46 329 0
49 -50 330 0
-49 -50 -330 0
49 50 -330 0
-49 50 330 0
316 -317 331 0
-316 -317 -331 0
316 317 -331 0
-316 317 331 0
318 -319 332 0
-318 -319 -332 0
318 319 -332 0
-318 319 332 0
320 -321 333 0
-320 -321 -333 0
320 321 -333 0
-320 321 333 0
322 -323 334 0
-322 -323 -334 0
322 323 -334 0
-322 323 334 0
324 -325 335 0
-324 -325 -335 0
324 325 -335 0
-324 325 335 0
326 -327 336 0
-326 -327 -336 0
326 327 -336 0
-326 327 336 0
328 -329 337 0
-328 -329 -337 0
328 329 -337 0
-328 329 337 0
330 -331 338 0
-330 -331 -338 0
330 331 -338 0
-330 331 338 0
332 -333 339 0
-332 -333 -339 0
332 333 -339 0
-332 333 339 0
334 -335 340 0
-334 -335 -340 0
334 335 -340 0
-334 335 340 0
336 -337 341 0
-336 -337 -341 0
336 337 -341 0
-336 337 341 0
338 -339 342 0
-338 -339 -342 0
338 339 -342 0
-338 339 342 0
340 -341 343 0
-340 -341 -343 0
340 341 -343 0
-340 341 343 0
342 343 0
-342 -343 0
-1 -2 344 0
1 -2 -344 0
-1 2 -344 0
1 2 344 0
3 4 345 0
-3 4 -345 0
3 -4 -345 0
-3 -4 345 0
5 6 346 0
-5 6 -346 0
5 -6 -346 0
-5 -6 346 0
7 -9 347 0
-7 -9 -347 0
7 9 -347 0
-7 9 347 0
11 14 348 0
-11 14 -348 0
11 -14 -348 0
-11 -14 348 0
18 -19 349 0
-18 -19 -349 0
18 19 -349 0
-18 19 349 0
20 -21 350 0
-20 -21 -350 0
20 21 -350 0
-20 21 350 0
22 24 351 0
-22 24 -351 0
22 -24 -351 0
-22 -24 351 0
-27 -28 352 0
27 -28 -352 0
-27 28 -352 0
27 28 352 0
29 -31 353 0
-29 -31 -353 0
29 31 -353 0
-29 31 353 0
33 34 354 0
-33 34 -354 0
33 -34 -354 0
-33 -34 354 0
36 -39 355 0
-36 -39 -355 0
36 39 -355 0
-36 39 355 0
-40 -42 356 0
40 -42 -356 0
-40 42 -356 0
40 42 356 0
43 -45 357 0
-43 -45 -357 0
43 45 -357 0
-43 45 357 0
343 -344 358 0
-343 -344 -358 0
343 344 -358 0
-343 344 358 0
345 -346 359 0
-345 -346 -359 0
345 346 -359 0
-345 346 359 0
347 -348 360 0
-347 -348 -360 0
347 348 -360 0
-347 348 360 0
349 -350 361 0
-349 -350 -361 0
349 350 -361 0
-349 350 361 0
351 -352 362 0
-351 -352 -362 0
351 352 -362 0
-351 352 362 0
353 -354 363 0
-353 -354 -363 0
353 354 -363 0
-353 354 363 0
355 -356 364 0
-355 -356 -364 0
355 356 -364 0
-355 356 364 0
357 -358 365 0
-357 -358 -365 0
357 358 -365 0
-357 358 365 0
359 -360 366 0
-359 -360 -366 0
359 360 -366 0
-359 360 366 0
361 -362 367 0
-361 -362 -367 0
361 362 -367 0
-361 362 367 0
363 -364 368 0
-363 -364 -368 0
363 364 -368 0
-363 364 368 0
365 -366 369 0
-365 -366 -369 0
365 366 -369 0
-365 366 369 0
367 -368 370 0
-367 -368 -370 0
367 368 -370 0
-367 368 370 0
369 370 0
-369 -370 0
-1 -5 371 0
1 -5 -371 0
-1 5 -371 0
1 5 371 0
-7 11 372 0
7 11 -372 0
-7 -11 -372 0
7 -11 372 0
-13 14 373 0
13 14 -373 0
-13 -14 -373 0
13 -14 373 0
16 18 374 0
-16 18 -374 0
16 -18 -374 0
-16 -18 374 0
-21 -24 375 0
21 -24 -375 0
-21 24 -375 0
21 24 375 0
-26 -28 376 0
26 -28 -376 0
-26 28 -376 0
26 28 376 0
-29 33 377 0
29 33 -377 0
-29 -33 -377 0
29 -33 377 0
35 36 378 0
-35 36 -378 0
35 -36 -378 0
-35 -36 378 0
40 47 379 0
-40 47 -379 0
40 -47 -379 0
-40 -47 379 0
48 -49 380 0
-48 -49 -380 0
48 49 -380 0
-48 49 380 0
370 -371 381 0
-370 -371 -381 0
370 371 -381 0
-370 371 381 0
372 -373 382 0
-372 -373 -382 0
372 373 -382 0
-372 373 382 0
374 -375 383 0
-374 -375 -383 0
374 375 -383 0
-374 375 383 0
376 -377 384 0
-376 -377 -384 0
376 377 -384 0
-376 377 384 0
378 -379 385 0
-378 -379 -385 0
378 379 -385 0
-378 379 385 0
380 -381 386 0
-380 -381 -386 0
380 381 -386 0
-380 381 386 0
382 -383 387 0
-382 -383 -387 0
382 383 -387 0
-382 383 387 0
384 -385 388 0
-384 -385 -388 0
384 385 -388 0
-384 385 388 0
-386 -387 388 0
386 -387 -388 0
-386 387 -388 0
386 387 388 0
1 -4 389 0
-1 -4 -389 0
1 4 -389 0
-1 4 389 0
6 9 390 0
-6 9 -390 0
6 -9 -390 0
-6 -9 390 0
-12 13 391 0
12 13 -391 0
-12 -13 -391 0
12 -13 391 0
15 17 392 0
-15 17 -392 0
15 -17 -392 0
-15 -17 392 0
-18 -20 393 0
18 -20 -393 0
-18 20 -393 0
18 20 393 0
22 24 394 0
-22 24 -394 0
22 -24 -394 0
-22 -24 394 0
27 -28 395 0
-27 -28 -395 0
27 28 -395 0
-27 28 395 0
-30 32 396 0
30 32 -396 0
-30 -32 -396 0
30 -32 396 0
-34 35 397 0
34 35 -397 0
-34 -35 -397 0
34 -35 397 0
-38 39 398 0
38 39 -398 0
-38 -39 -398 0
38 -39 398 0
-40 41 399 0
40 41 -399 0
-40 -41 -399 0
40 -41 399 0
42 43 400 0
-42 43 -400 0
42 -43 -400 0
-42 -43 400 0
44 46 401 0
-44 46 -401 0
44 -46 -401 0
-44 -46 401 0
48 -50 402 0
-48 -50 -402 0
48 50 -402 0
-48 50 402 0
389 -390 403 0
-389 -390 -403 0
389 390 -403 0
-389 390 403 0
391 -392 404 0
-391 -392 -404 0
391 392 -404 0
-391 392 404 0
393 -394 405 0
-393 -394 -405 0
393 394 -405 0
-393 394 405 0
395 -396 406 0
-395 -396 -406 0
395 396 -406 0
-395 396 406 0
397 -398 407 0
-397 -398 -407 0
397 398 -407 0
-397 398 407 0
399 -400 408 0
-399 -400 -408 0
399 400 -408 0
-399 400 408 0
401 -402 409 0
-401 -402 -409 0
401 402 -409 0
-401 402 409 0
403 -404 410 0
-403 -404 -410 0
403 404 -410 0
-403 404 410 0
405 -406 411 0
-405 -406 -411 0
405 406 -411 0
-405 406 411 0
407 -408 412 0
-407 -408 -412 0
407 408 -412 0
-407 408 412 0
409 -410 413 0
-409 -410 -413 0
409 410 -413 0
-409 410 413 0
411 -412 414 0
-411 -412 -414 0
411 412 -414 0
-411 412 414 0
413 414 0
-413 -414 0
-1 3 415 0
1 3 -415 0
-1 -3 -415 0
1 -3 415 0
8 9 416 0
-8 9 -416 0
8 -9 -416 0
-8 -9 416 0
-11 12 417 0
11 12 -417 0
-11 -12 -417 0
11 -12 417 0
13 14 418 0
-13 14 -418 0
13 -14 -418 0
-13 -14 418 0
17 -18 419 0
-17 -18 -419 0
17 18 -419 0
-17 18 419 0
19 21 420 0
-19 21 -420 0
19 -21 -420 0
-19 -21 420 0
22 25 421 0
-22 25 -421 0
22 -25 -421 0
-22 -25 421 0
-26 -32 422 0
26 -32 -422 0
-26 32 -422 0
26 32 422 0
35 36 423 0
-35 36 -423 0
35 -36 -423 0
-35 -36 423 0
37 41 424 0
-37 41 -424 0
37 -41 -424 0
-37 -41 424 0
-43 44 425 0
43 44 -425 0
-43 -44 -425 0
43 -44 425 0
45 46 426 0
-45 46 -426 0
45 -46 -426 0
-45 -46 426 0
414 -415 427 0
-414 -415 -427 0
414 415 -427 0
-414 415 427 0
416 -417 428 0
-416 -417 -428 0
416 417 -428 0
-416 417 428 0
418 -419 429 0
-418 -419 -429 0
418 419 -429 0
-418 419 429 0
420 -421 430 0
-420 -421 -430 0
420 421 -430 0
-420 421 430 0
422 -423 431 0
-422 -423 -431 0
422 423 -431 0
-422 423 431 0
424 -425 432 0
-424 -425 -432 0
424 425 -432 0
-424 425 432 0
426 -427 433 0
-426 -427 -433 0
426 427 -433 0
-426 427 433 0
428 -429 434 0
-428 -429 -434 0
428 429 -434 0
-428 429 434 0
430 -431 435 0
-430 -431 -435 0
430 431 -435 0
-430 431 435 0
432 -433 436 0
-432 -433 -436 0
432 433 -436 0
-432 433 436 0
434 -435 437 0
-434 -435 -437 0
434 435 -437 0
-434 435 437 0
436 437 0
-436 -437 0
1 3 438 0
-1 3 -438 0
1 -3 -438 0
-1 -3 438 0
4 5 439 0
-4 5 -439 0
4 -5 -439 0
-4 -5 439 0
-7 8 440 0
7 8 -440 0
-7 -8 -440 0
7 -8 440 0
9 11 441 0
-9 11 -441 0
9 -11 -441 0
-9 -11 441 0
-18 -19 442 0
18 -19 -442 0
-18 19 -442 0
18 19 442 0
21 22 443 0
-21 22 -443 0
21 -22 -443 0
-21 -22 443 0
-23 -26 444 0
23 -26 -444 0
-23 26 -444 0
23 26 444 0
-28 -30 445 0
28 -30 -445 0
-28 30 -445 0
28 30 445 0
-32 -33 446 0
32 -33 -446 0
-32 33 -446 0
32 33 446 0
34 35 447 0
-34 35 -447 0
34 -35 -447 0
-34 -35 447 0
38 40 448 0
-38 40 -448 0
38 -40 -448 0
-38 -40 448 0
-45 -46 449 0
45 -46 -449 0
-45 46 -449 0
45 46 449 0
437 -438 450 0
-437 -438 -450 0
437 438 -450 0
-437 438 450 0
439 -440 451 0
-439 -440 -451 0
439 440 -451 0
-439 440 451 0
441 -442 452 0
-441 -442 -452 0
441 442 -452 0
-441 442 452 0
443 -444 453 0
-443 -444 -453 0
443 444 -453 0
-443 444 453 0
445 -446 454 0
-445 -446 -454 0
445 446 -454 0
-445 446 454 0
447 -448 455 0
-447 -448 -455 0
447 448 -455 0
-447 448 455 0
449 -450 456 0
-449 -450 -456 0
449 450 -456 0
-449 450 456 0
451 -452 457 0
-451 -452 -457 0
451 452 -457 0
-451 452 457 0
453 -454 458 0
-453 -454 -458 0
453 454 -458 0
-453 454 458 0
455 -456 459 0
-455 -456 -459 0
455 456 -459 0
-455 456 459 0
457 -458 460 0
-457 -458 -460 0
457 458 -460 0
-457 458 460 0
459 460 0
-459 -460 0
-2 -3 461 0
2 -3 -461 0
-2 3 -461 0
2 3 461 0
5 -6 462 0
-5 -6 -462 0
5 6 -462 0
-5 6 462 0
8 12 463 0
-8 12 -463 0
8 -12 -463 0
-8 -12 463 0
-13 14 464 0
13 14 -464 0
-13 -14 -464 0
13 -14 464 0
-15 -17 465 0
15 -17 -465 0
-15 17 -465 0
15 17 465 0
-19 -24 466 0
19 -24 -466 0
-19 24 -466 0
19 24 466 0
-27 -29 467 0
27 -29 -467 0
-27 29 -467 0
27 29 467 0
34 36 468 0
-34 36 -468 0
34 -36 -468 0
-34 -36 468 0
-37 42 469 0
37 42 -469 0
-37 -42 -469 0
37 -42 469 0
-43 -44 470 0
43 -44 -470 0
-43 44 -470 0
43 44 470 0
46 47 471 0
-46 47 -471 0
46 -47 -471 0
-46 -47 471 0
-48 -50 472 0
48 -50 -472 0
-48 50 -472 0
48 50 472 0
461 -462 473 0
-461 -462 -473 0
461 462 -473 0
-461 462 473 0
463 -464 474 0
-463 -464 -474 0
463 464 -474 0
-463 464 474 0
465 -466 475 0
-465 -466 -475 0
465 466 -475 0
-465 466 475 0
467 -468 476 0
-467 -468 -476 0
467 468 -476 0
-467 468 476 0
469 -470 477 0
-469 -470 -477 0
469 470 -477 0
-469 470 477 0
471 -472 478 0
-471 -472 -478 0
471 472 -478 0
-471 472 478 0
473 -474 479 0
-473 -474 -479 0
473 474 -479 0
-473 474 479 0
475 -476 480 0
-475 -476 -480 0
475 476 -480 0
-475 476 480 0
477 -478 481 0
-477 -478 -481 0
477 478 -481 0
-477 478 481 0
-479 -480 481 0
479 -480 -481 0
-479 480 -481 0
479 480 481 0
-2 -3 482 0
2 -3 -482 0
-2 3 -482 0
2 3 482 0
6 -8 483 0
-6 -8 -483 0
6 8 -483 0
-6 8 483 0
-12 -13 484 0
12 -13 -484 0
-12 13 -484 0
12 13 484 0
-14 15 485 0
14 15 -485 0
-14 -15 -485 0
14 -15 485 0
-16 -19 486 0
16 -19 -486 0
-16 19 -486 0
16 19 486 0
21 -22 487 0
-21 -22 -487 0
21 22 -487 0
-21 22 487 0
-23 -24 488 0
23 -24 -488 0
-23 24 -488 0
23 24 488 0
-25 28 489 0
25 28 -489 0
-25 -28 -489 0
25 -28 489 0
34 35 490 0
-34 35 -490 0
34 -35 -490 0
-34 -35 490 0
36 37 491 0
-36 37 -491 0
36 -37 -491 0
-36 -37 491 0
-38 -39 492 0
38 -39 -492 0
-38 39 -492 0
38 39 492 0
40 42 493 0
-40 42 -493 0
40 -42 -493 0
-40 -42 493 0
-43 -44 494 0
43 -44 -494 0
-43 44 -494 0
43 44 494 0
46 48 495 0
-46 48 -495 0
46 -48 -495 0
-46 -48 495 0
49 -50 496 0
-49 -50 -496 0
49 50 -496 0
-49 50 496 0
482 -483 497 0
-482 -483 -497 0
482 483 -497 0
-482 483 497 0
484 -485 498 0
-484 -485 -498 0
484 485 -498 0
-484 485 498 0
486 -487 499 0
-486 -487 -499 0
486 487 -499 0
-486 487 499 0
488 -489 500 0
-488 -489 -500 0
488 489 -500 0
-488 489 500 0
490 -491 501 0
-490 -491 -501 0
490 491 -501 0
-490 491 501 0
492 -493 502 0
-492 -493 -502 0
492 493 -502 0
-492 493 502 0
494 -495 503 0
-494 -495 -503 0
494 495 -503 0
-494 495 503 0
496 -497 504 0
-496 -497 -504 0
496 497 -504 0
-496 497 504 0
498 -499 505 0
-498 -499 -505 0
498 499 -505 0
-498 499 505 0
500 -501 506 0
-500 -501 -506 0
500 501 -506 0
-500 501 506 0
502 -503 507 0
-502 -503 -507 0
502 503 -507 0
-502 503 507 0
504 -505 508 0
-504 -505 -508 0
504 505 -508 0
-504 505 508 0
506 -507 509 0
-506 -507 -509 0
506 507 -509 0
-506 507 509 0
508 509 0
-508 -509 0
-12 510 0
-24 510 0
-12 -24 511 0
-23 510 0
-12 -23 511 0
-24 -23 511 0
-12 -24 -23 512 0
-22 513 0
-21 513 0
-22 -21 514 0
-20 513 0
-22 -20 514 0
-21 -20 514 0
-22 -21 -20 515 0
-510 516 0
-511 517 0
-512 518 0
-513 516 0
-514 517 0
-515 518 0
-510 -513 517 0
-510 -514 518 0
-510 -515 519 0
-511 -513 518 0
-511 -514 519 0
-511 -515 520 0
-512 -513 519 0
-512 -514 520 0
-512 -515 521 0
-19 522 0
-18 522 0
-19 -18 523 0
-17 522 0
-19 -17 523 0
-18 -17 523 0
-19 -18 -17 524 0
-16 525 0
-15 525 0
-16 -15 526 0
-14 525 0
-16 -14 526 0
-15 -14 526 0
-16 -15 -14 527 0
-522 528 0
-523 529 0
-524 530 0
-525 528 0
-526 529 0
-527 530 0
-522 -525 529 0
-522 -526 530 0
-522 -527 531 0
-523 -525 530 0
-523 -526 531 0
-523 -527 532 0
-524 -525 531 0
-524 -526 532 0
-524 -527 533 0
-13 534 0
-25 534 0
-13 -25 535 0
-11 534 0
-13 -11 535 0
-25 -11 535 0
-13 -25 -11 536 0
-10 537 0
-9 537 0
-10 -9 538 0
-8 537 0
-10 -8 538 0
-9 -8 538 0
-10 -9 -8 539 0
-534 540 0
-535 541 0
-536 542 0
-537 540 0
-538 541 0
-539 542 0
-534 -537 541 0
-534 -538 542 0
-534 -539 543 0
-535 -537 542 0
-535 -538 543 0
-535 -539 544 0
-536 -537 543 0
-536 -538 544 0
-536 -539 545 0
-7 546 0
-6 546 0
-7 -6 547 0
-5 546 0
-7 -5 547 0
-6 -5 547 0
-7 -6 -5 548 0
-4 549 0
-3 549 0
-4 -3 550 0
-2 551 0
-1 551 0
-2 -1 552 0
-37 551 0
-2 -37 552 0
-1 -37 552 0
-2 -1 -37 553 0
-549 554 0
-550 555 0
-551 554 0
-552 555 0
-553 556 0
-549 -551 555 0
-549 -552 556 0
-549 -553 557 0
-550 -551 556 0
-550 -552 557 0
-550 -553 558 0
-546 559 0
-547 560 0
-548 561 0
-554 559 0
-555 560 0
-556 561 0
-557 562 0
-558 563 0
-546 -554 560 0
-546 -555 561 0
-546 -556 562 0
-546 -557 563 0
-546 -558 564 0
-547 -554 561 0
-547 -555 562 0
-547 -556 563 0
-547 -557 564 0
-547 -558 565 0
-548 -554 562 0
-548 -555 563 0
-548 -556 564 0
-548 -557 565 0
-548 -558 566 0
-49 567 0
-48 567 0
-49 -48 568 0
-47 567 0
-49 -47 568 0
-48 -47 568 0
-49 -48 -47 569 0
-46 570 0
-45 570 0
-46 -45 571 0
-44 572 0
-43 572 0
-44 -43 573 0
-42 572 0
-44 -42 573 0
-43 -42 573 0
-44 -43 -42 574 0
-570 575 0
-571 576 0
-572 575 0
-573 576 0
-574 577 0
-570 -572 576 0
-570 -573 577 0
-570 -574 578 0
-571 -572 577 0
-571 -573 578 0
-571 -574 579 0
-567 580 0
-568 581 0
-569 582 0
-575 580 0
-576 581 0
-577 582 0
-578 583 0
-579 584 0
-567 -575 581 0
-567 -576 582 0
-567 -577 583 0
-567 -578 584 0
-567 -579 585 0
-568 -575 582 0
-568 -576 583 0
-568 -577 584 0
-568 -578 585 0
-568 -579 586 0
-569 -575 583 0
-569 -576 584 0
-569 -577 585 0
-569 -578 586 0
-569 -579 587 0
-41 588 0
-40 588 0
-41 -40 589 0
-39 588 0
-41 -39 589 0
-40 -39 589 0
-41 -40 -39 590 0
-38 591 0
-50 591 0
-38 -50 592 0
-36 593 0
-35 593 0
-36 -35 594 0
-34 593 0
-36 -34 594 0
-35 -34 594 0
-36 -35 -34 595 0
-591 596 0
-592 597 0
-593 596 0
-594 597 0
-595 598 0
-591 -593 597 0
-591 -594 598 0
-591 -595 599 0
-592 -593 598 0
-592 -594 599 0
-592 -595 600 0
-588 601 0
-589 602 0
-590 603 0
-596 601 0
-597 602 0
-598 603 0
-599 604 0
-600 605 0
-588 -596 602 0
-588 -597 603 0
-588 -598 604 0
-588 -599 605 0
-588 -600 606 0
-589 -596 603 0
-589 -597 604 0
-589 -598 605 0
-589 -599 606 0
-589 -600 607 0
-590 -596 604 0
-590 -597 605 0
-590 -598 606 0
-590 -599 607 0
-590 -600 608 0
-33 609 0
-32 609 0
-33 -32 610 0
-31 609 0
-33 -31 610 0
-32 -31 610 0
-33 -32 -31 611 0
-30 612 0
-29 612 0
-30 -29 613 0
-28 614 0
-27 614 0
-28 -27 615 0
-26 614 0
-28 -26 615 0
-27 -26 615 0
-28 -27 -26 616 0
-612 617 0
-613 618 0
-614 617 0
-615 618 0
-616 619 0
-612 -614 618 0
-612 -615 619 0
-612 -616 620 0
-613 -614 619 0
-613 -615 620 0
-613 -616 621 0
-609 622 0
-610 623 0
-611 624 0
-617 622 0
-618 623 0
-619 624 0
-620 625 0
-621 626 0
-609 -617 623 0
-609 -618 624 0
-609 -619 625 0
-609 -620 626 0
-609 -621 627 0
-610 -617 624 0
-610 -618 625 0
-610 -619 626 0
-610 -620 627 0
-610 -621 628 0
-611 -617 625 0
-611 -618 626 0
-611 -619 627 0
-611 -620 628 0
-611 -621 629 0
-601 630 0
-603 631 0
-605 632 0
-607 633 0
-622 630 0
-624 631 0
-626 632 0
-628 633 0
-601 -622 631 0
-601 -624 632 0
-601 -626 633 0
-601 -628 634 0
-603 -622 632 0
-603 -624 633 0
-603 -626 634 0
-603 -628 635 0
-605 -622 633 0
-605 -624 634 0
-605 -626 635 0
-607 -622 634 0
-607 -624 635 0
-602 636 0
-606 637 0
-623 636 0
-627 637 0
-602 -623 637 0
-602 -627 638 0
-606 -623 638 0
-604 639 0
-608 640 0
-625 639 0
-629 640 0
-604 -625 640 0
-637 641 0
-639 641 0
-637 -639 642 0
-638 643 0
-640 643 0
-638 -640 644 0
-631 645 0
-636 645 0
-631 -636 646 0
-632 647 0
-641 647 0
-632 -641 648 0
-633 649 0
-642 649 0
-633 -642 650 0
-634 651 0
-643 651 0
-634 -643 652 0
-635 653 0
-644 653 0
-635 -644 654 0
-580 655 0
-582 656 0
-584 657 0
-586 658 0
-630 655 0
-646 656 0
-648 657 0
-650 658 0
-652 659 0
-654 660 0
-580 -630 656 0
-580 -646 657 0
-580 -648 658 0
-580 -650 659 0
-580 -652 660 0
-582 -630 657 0
-582 -646 658 0
-582 -648 659 0
-582 -650 660 0
-584 -630 658 0
-584 -646 659 0
-584 -648 660 0
-586 -630 659 0
-586 -646 660 0
-581 661 0
-585 662 0
-645 661 0
-649 662 0
-653 663 0
-581 -645 662 0
-581 -649 663 0
-585 -645 663 0
-583 664 0
-587 665 0
-647 664 0
-651 665 0
-583 -647 665 0
-662 666 0
-664 666 0
-662 -664 667 0
-663 668 0
-665 668 0
-663 -665 669 0
-656 670 0
-661 670 0
-656 -661 671 0
-657 672 0
-666 672 0
-657 -666 673 0
-658 674 0
-667 674 0
-658 -667 675 0
-659 676 0
-668 676 0
-659 -668 677 0
-660 678 0
-669 678 0
-660 -669 679 0
-559 680 0
-561 681 0
-563 682 0
-565 683 0
-655 680 0
-671 681 0
-673 682 0
-675 683 0
-677 684 0
-679 685 0
-559 -655 681 0
-559 -671 682 0
-559 -673 683 0
-559 -675 684 0
-559 -677 685 0
-561 -655 682 0
-561 -671 683 0
-561 -673 684 0
-561 -675 685 0
-563 -655 683 0
-563 -671 684 0
-563 -673 685 0
-565 -655 684 0
-565 -671 685 0
-560 686 0
-564 687 0
-670 686 0
-674 687 0
-678 688 0
-560 -670 687 0
-560 -674 688 0
-564 -670 688 0
-562 689 0
-566 690 0
-672 689 0
-676 690 0
-562 -672 690 0
-687 691 0
-689 691 0
-687 -689 692 0
-688 693 0
-690 693 0
-688 -690 694 0
-681 695 0
-686 695 0
-681 -686 696 0
-682 697 0
-691 697 0
-682 -691 698 0
-683 699 0
-692 699 0
-683 -692 700 0
-684 701 0
-693 701 0
-684 -693 702 0
-685 703 0
-694 703 0
-685 -694 704 0
-540 705 0
-542 706 0
-544 707 0
-680 705 0
-696 706 0
-698 707 0
-700 708 0
-702 709 0
-704 710 0
-540 -680 706 0
-540 -696 707 0
-540 -698 708 0
-540 -700 709 0
-540 -702 710 0
-542 -680 707 0
-542 -696 708 0
-542 -698 709 0
-542 -700 710 0
-544 -680 708 0
-544 -696 709 0
-544 -698 710 0
-541 711 0
-543 712 0
-545 713 0
-695 711 0
-697 712 0
-699 713 0
-701 714 0
-703 715 0
-541 -695 712 0
-541 -697 713 0
-541 -699 714 0
-541 -701 715 0
-543 -695 713 0
-543 -697 714 0
-543 -699 715 0
-545 -695 714 0
-545 -697 715 0
-706 716 0
-711 716 0
-706 -711 717 0
-707 718 0
-712 718 0
-707 -712 719 0
-708 720 0
-713 720 0
-708 -713 721 0
-709 722 0
-714 722 0
-709 -714 723 0
-710 724 0
-715 724 0
-710 -715 725 0
-528 726 0
-530 727 0
-532 728 0
-705 726 0
-717 727 0
-719 728 0
-721 729 0
-723 730 0
-725 731 0
-528 -705 727 0
-528 -717 728 0
-528 -719 729 0
-528 -721 730 0
-528 -723 731 0
-530 -705 728 0
-530 -717 729 0
-530 -719 730 0
-530 -721 731 0
-532 -705 729 0
-532 -717 730 0
-532 -719 731 0
-529 732 0
-531 733 0
-533 734 0
-716 732 0
-718 733 0
-720 734 0
-722 735 0
-724 736 0
-529 -716 733 0
-529 -718 734 0
-529 -720 735 0
-529 -722 736 0
-531 -716 734 0
-531 -718 735 0
-531 -720 736 0
-533 -716 735 0
-533 -718 736 0
-727 737 0
-732 737 0
-727 -732 738 0
-728 739 0
-733 739 0
-728 -733 740 0
-729 741 0
-734 741 0
-729 -734 742 0
-730 743 0
-735 743 0
-730 -735 744 0
-731 745 0
-736 745 0
-731 -736 746 0
-516 747 0
-518 748 0
-520 749 0
-726 747 0
-738 748 0
-740 749 0
-742 750 0
-744 751 0
-746 752 0
-516 -726 748 0
-516 -738 749 0
-516 -740 750 0
-516 -742 751 0
-516 -744 752 0
-518 -726 749 0
-518 -738 750 0
-518 -740 751 0
-518 -742 752 0
-520 -726 750 0
-520 -738 751 0
-520 -740 752 0
-517 753 0
-519 754 0
-521 755 0
-737 753 0
-739 754 0
-741 755 0
-743 756 0
-745 757 0
-517 -737 754 0
-517 -739 755 0
-517 -741 756 0
-517 -743 757 0
-519 -737 755 0
-519 -739 756 0
-519 -741 757 0
-521 -737 756 0
-521 -739 757 0
-748 758 0
-753 758 0
-748 -753 759 0
-749 760 0
-754 760 0
-749 -754 761 0
-750 762 0
-755 762 0
-750 -755 763 0
-751 764 0
-756 764 0
-751 -756 765 0
-752 766 0
-757 766 0
-752 -757 767 0
-767 0
